14646
0 0 0 0 1 1 0 1 1 1 1 0 0 1 0 0 1 0 1 0 1 1 1 0 0 1 0 0 0 0
21 10 21 25 25 8 13 18 7 9 8 13 18 21 16 10 20 18 7 16 21 20 8 7 5 10 20 8 5 9 4 13 10 7 4 21 21 21 7 5 8 13 20 18 21 7 20 9 5 13 22 13 8 7 13 10 18 8 25 25 22 13 8 7 9 4 13 10 9 21 8 22 18 9 5 10 7 16 5 7 4 13 10 9 4 21 20 21 7 5 4 13 8 9 4 8 13 18 21 5 4 13 22 9 21 10 20 9 25 5 22 20 8 5 7 22 20 8 7 9 7 7 8 5 7 10 20 8 5 25 22 13 16 7 9 21 20 8 25 25 8 13 18 10 4 22 20 8 25 5